120
150
57
44
51
57
48
42
55
52
54
53
43
57
48
45
43
46
57
50
46
54
47
55
47
60
60
53
49
57
45
58
44
48
48
48
48
53
50
47
53
57
53
54
43
44
49
57
40
60
53
47
43
60
59
50
51
54
48
48
54
47
48
55
45
41
48
42
60
40
40
40
52
51
47
43
60
60
42
57
40
53
48
60
43
58
45
55
47
48
47
47
47
50
43
57
42
57
60
43
51
47
44
59
53
47
50
59
45
53
51
49
51
50
47
57
48
51
50
49
46
46
